NAME : rcdp0507
TYPE : VRPSPDTW
DIMENSION : 6
VEHICLES : 2
CAPACITY : 200
EDGE_WEIGHT_TYPE : EXACT_2D
NODE_COORD_SECTION
1 40 50
2 58 75
3 55 80
4 42 12
5 35 69
6 5 5
PICKUP_AND_DELIVERY_SECTION
1 0 0 240 0 0 0
2 0 48 165 10 40 20
3 0 33 166 10 40 10
4 0 79 158 10 10 10
5 0 60 210 10 11 23
6 0 60 117 10 17 16
DEPOT_SECTION
1 
-1
